4 3 100 1 2
0 1000
 1 40.00 50.00 0.00 0.00 0.00 0 0 0 960
 2 25.00 85.00 10.00 20.00 40.00 1 1 1 0 911
 3 22.00 75.00 10.00 30.00 19.00 1 1 1 0 919
 4 22.00 85.00 10.00 10.00 9.00 1 1 1 0 910
 5 20.00 80.00 10.00 40.00 10.00 1 1 1 644 764
 6 20.00 85.00 10.00 20.00 20.00 1 1 1 0 909
 7 18.00 75.00 10.00 20.00 23.00 1 1 1 0 916
 8 15.00 75.00 10.00 20.00 9.00 1 1 1 0 914
 9 15.00 80.00 10.00 10.00 21.00 1 1 1 367 487
 10 10.00 35.00 10.00 20.00 6.00 1 1 1 371 491
 11 10.00 40.00 10.00 30.00 10.00 1 1 1 0 918
 12 8.00 40.00 10.00 40.00 13.00 1 1 1 195 315
 13 8.00 45.00 10.00 20.00 6.00 1 1 1 0 917
 14 5.00 35.00 10.00 10.00 16.00 1 1 1 653 773
 15 5.00 45.00 10.00 10.00 30.00 1 1 1 0 914
 16 2.00 40.00 10.00 20.00 20.00 1 1 1 174 294
 17 0.00 40.00 10.00 20.00 10.00 1 1 1 0 908
 18 0.00 45.00 10.00 20.00 14.00 1 1 1 0 909
 19 44.00 5.00 10.00 20.00 17.00 1 1 1 0 904
 20 42.00 10.00 10.00 40.00 10.00 1 1 1 0 909
 21 42.00 15.00 10.00 10.00 10.00 1 1 1 0 914
 22 40.00 5.00 10.00 10.00 20.00 1 1 1 0 905
 23 40.00 15.00 10.00 40.00 19.00 1 1 1 0 915
 24 38.00 5.00 10.00 30.00 30.00 1 1 1 201 321
 25 38.00 15.00 10.00 10.00 20.00 1 1 1 0 914
 26 35.00 5.00 10.00 20.00 40.00 1 1 1 784 904
 27 95.00 30.00 10.00 30.00 27.00 1 1 1 0 891
 28 95.00 35.00 10.00 20.00 5.00 1 1 1 0 892
 29 92.00 30.00 10.00 10.00 20.00 1 1 1 0 894
 30 90.00 35.00 10.00 10.00 40.00 1 1 1 0 897
 31 88.00 30.00 10.00 10.00 20.00 1 1 1 0 898
 32 88.00 35.00 10.00 20.00 10.00 1 1 1 0 899
 33 87.00 30.00 10.00 10.00 10.00 1 1 1 0 898
 34 85.00 25.00 10.00 10.00 7.00 1 1 1 0 898
 35 85.00 35.00 10.00 30.00 16.00 1 1 1 0 902
 36 67.00 85.00 10.00 20.00 14.00 1 1 1 0 905
 37 65.00 85.00 10.00 40.00 26.00 1 1 1 0 906
 38 65.00 82.00 10.00 10.00 28.00 1 1 1 0 909
 39 62.00 80.00 10.00 30.00 5.00 1 1 1 278 398
 40 60.00 80.00 10.00 10.00 23.00 1 1 1 0 913
 41 60.00 85.00 10.00 30.00 20.00 1 1 1 0 909
 42 58.00 75.00 10.00 20.00 40.00 1 1 1 0 919
 43 55.00 80.00 10.00 10.00 10.00 1 1 1 0 916
 44 55.00 85.00 10.00 20.00 3.00 1 1 1 0 911
 45 55.00 82.00 10.00 10.00 35.00 1 1 1 217 337
 46 20.00 82.00 10.00 10.00 2.00 1 1 1 0 912
 47 18.00 80.00 10.00 10.00 19.00 1 1 1 0 912
 48 2.00 45.00 10.00 10.00 16.00 1 1 1 0 911
 49 42.00 5.00 10.00 10.00 10.00 1 1 1 0 904
 50 42.00 12.00 10.00 10.00 10.00 1 1 1 0 911
 51 72.00 35.00 10.00 30.00 13.00 1 1 1 0 914
 52 55.00 20.00 10.00 19.00 20.00 1 1 1 0 916
 53 25.00 30.00 10.00 3.00 25.00 1 1 1 0 925
 54 20.00 50.00 10.00 5.00 3.00 1 1 1 375 495
 55 55.00 60.00 10.00 16.00 30.00 1 1 1 0 931
 56 30.00 60.00 10.00 16.00 10.00 1 1 1 599 719
 57 50.00 35.00 10.00 19.00 20.00 1 1 1 0 931
 58 30.00 25.00 10.00 23.00 10.00 1 1 1 0 923
 59 15.00 10.00 10.00 20.00 10.00 1 1 1 782 902
 60 10.00 20.00 10.00 19.00 20.00 1 1 1 0 907
 61 15.00 60.00 10.00 17.00 20.00 1 1 1 0 923
 62 45.00 65.00 10.00 9.00 20.00 1 1 1 0 934
 63 65.00 35.00 10.00 3.00 30.00 1 1 1 167 287
 64 65.00 20.00 10.00 6.00 10.00 1 1 1 0 910
 65 45.00 30.00 10.00 17.00 31.00 1 1 1 0 929
 66 35.00 40.00 10.00 16.00 23.00 1 1 1 0 938
 67 41.00 37.00 10.00 16.00 20.00 1 1 1 0 936
 68 64.00 42.00 10.00 9.00 8.00 1 1 1 268 388
 69 40.00 60.00 10.00 21.00 30.00 1 1 1 0 940
 70 31.00 52.00 10.00 27.00 9.00 1 1 1 157 277
 71 35.00 69.00 10.00 23.00 10.00 1 1 1 0 930
 72 65.00 55.00 10.00 14.00 30.00 1 1 1 0 924
 73 63.00 65.00 10.00 8.00 19.00 1 1 1 0 922
 74 2.00 60.00 10.00 5.00 30.00 1 1 1 0 910
 75 20.00 20.00 10.00 8.00 10.00 1 1 1 645 765
 76 5.00 5.00 10.00 16.00 13.00 1 1 1 0 892
 77 60.00 12.00 10.00 31.00 10.00 1 1 1 268 388
 78 23.00 3.00 10.00 7.00 10.00 1 1 1 764 884
 79 8.00 56.00 10.00 27.00 27.00 1 1 1 0 917
 80 6.00 68.00 10.00 30.00 20.00 1 1 1 352 472
 81 47.00 47.00 10.00 13.00 16.00 1 1 1 0 942
 82 49.00 58.00 10.00 10.00 20.00 1 1 1 0 937
 83 27.00 43.00 10.00 9.00 10.00 1 1 1 0 935
 84 37.00 31.00 10.00 14.00 10.00 1 1 1 0 930
 85 57.00 29.00 10.00 18.00 30.00 1 1 1 395 515
 86 63.00 23.00 10.00 2.00 10.00 1 1 1 0 914
 87 21.00 24.00 10.00 28.00 14.00 1 1 1 0 917
 88 12.00 24.00 10.00 13.00 9.00 1 1 1 359 479
 89 24.00 58.00 10.00 19.00 15.00 1 1 1 0 932
 90 67.00 5.00 10.00 25.00 10.00 1 1 1 0 897
 91 37.00 47.00 10.00 6.00 18.00 1 1 1 0 945
 92 49.00 42.00 10.00 13.00 40.00 1 1 1 0 937
 93 53.00 43.00 10.00 14.00 6.00 1 1 1 14 134
 94 61.00 52.00 10.00 3.00 17.00 1 1 1 0 928
 95 57.00 48.00 10.00 23.00 20.00 1 1 1 0 932
 96 56.00 37.00 10.00 6.00 30.00 1 1 1 0 929
 97 55.00 54.00 10.00 26.00 3.00 1 1 1 0 934
 98 4.00 18.00 10.00 35.00 3.00 1 1 1 0 901
 99 26.00 52.00 10.00 9.00 16.00 1 1 1 0 935
 100 26.00 35.00 10.00 15.00 20.00 1 1 1 308 428
 101 31.00 67.00 10.00 3.00 8.00 1 1 1 810 930
